(set-option :produce-models true); benchmark generated from python API
(set-info :status unknown)
(declare-fun l_0_0_3 () Real)
(declare-fun l_0_0_2 () Real)
(declare-fun _a_3_ () Real)
(declare-fun _a_1_ () Real)
(declare-fun _a_2_ () Real)
(declare-fun l_0_0_4 () Real)
(declare-fun _a_0_ () Real)
(declare-fun l_0_0_1 () Real)
(declare-fun l_0_1_6 () Real)
(declare-fun l_0_1_5 () Real)
(declare-fun l_0_1_4 () Real)
(declare-fun l_0_1_3 () Real)
(declare-fun l_0_1_2 () Real)
(declare-fun l_0_1_1 () Real)
(declare-fun l_0_2_8 () Real)
(declare-fun l_0_2_7 () Real)
(declare-fun l_0_2_6 () Real)
(declare-fun l_0_2_5 () Real)
(declare-fun l_0_2_4 () Real)
(declare-fun l_0_2_3 () Real)
(declare-fun l_0_2_2 () Real)
(declare-fun l_0_2_1 () Real)
(declare-fun l_0_3_9 () Real)
(declare-fun l_0_3_8 () Real)
(declare-fun l_0_3_7 () Real)
(declare-fun l_0_3_6 () Real)
(declare-fun l_0_3_5 () Real)
(declare-fun l_0_3_4 () Real)
(declare-fun l_0_3_3 () Real)
(declare-fun l_0_3_10 () Real)
(declare-fun l_0_3_2 () Real)
(declare-fun l_0_3_1 () Real)
(declare-fun l_0_4_4 () Real)
(declare-fun l_0_4_3 () Real)
(declare-fun l_0_4_1 () Real)
(declare-fun l_0_4_2 () Real)
(declare-fun l_0_5_6 () Real)
(declare-fun l_0_5_5 () Real)
(declare-fun l_0_5_4 () Real)
(declare-fun l_0_5_3 () Real)
(declare-fun l_0_5_1 () Real)
(declare-fun l_0_5_2 () Real)
(declare-fun l_0_6_8 () Real)
(declare-fun l_0_6_7 () Real)
(declare-fun l_0_6_6 () Real)
(declare-fun l_0_6_5 () Real)
(declare-fun l_0_6_4 () Real)
(declare-fun l_0_6_3 () Real)
(declare-fun l_0_6_2 () Real)
(declare-fun l_0_6_1 () Real)
(declare-fun l_0_7_9 () Real)
(declare-fun l_0_7_8 () Real)
(declare-fun l_0_7_7 () Real)
(declare-fun l_0_7_6 () Real)
(declare-fun l_0_7_5 () Real)
(declare-fun l_0_7_4 () Real)
(declare-fun l_0_7_3 () Real)
(declare-fun l_0_7_10 () Real)
(declare-fun l_0_7_2 () Real)
(declare-fun l_0_7_1 () Real)
(assert
 (let ((?x72 (- (- (* (* (- 200.0) _a_1_) _a_2_) (* (* 200.0 _a_1_) _a_3_)) l_0_0_2)))
 (= (+ (+ ?x72 l_0_0_3) 1.0) 0.0)))
(assert
 (let ((?x117 (* 200.0 l_0_0_3)))
 (let ((?x118 (- (- (* (* (- 200.0) _a_0_) _a_2_) (* (* 200.0 _a_0_) _a_3_)) ?x117)))
 (= (- ?x118 l_0_0_4) 0.0))))
(assert
 (= (- l_0_0_1) 0.0))
(assert
 (>= l_0_0_1 0.0))
(assert
 (>= l_0_0_2 0.0))
(assert
 (>= l_0_0_3 0.0))
(assert
 (>= l_0_0_4 0.0))
(assert
 (let ((?x149 (* 200.0 l_0_1_3)))
 (let ((?x150 (- (+ (* (* 200.0 _a_0_) _a_2_) (* (* 200.0 _a_0_) _a_3_)) ?x149)))
 (= (- (- (- ?x150 l_0_1_4) l_0_1_5) l_0_1_6) 0.0))))
(assert
 (let ((?x173 (- (+ (* (* 200.0 _a_1_) _a_2_) (* (* 200.0 _a_1_) _a_3_)) l_0_1_2)))
 (= (- (+ ?x173 l_0_1_3) 1.0) 0.0)))
(assert
 (= (- l_0_1_1) 0.0))
(assert
 (>= l_0_1_1 0.0))
(assert
 (>= l_0_1_2 0.0))
(assert
 (>= l_0_1_3 0.0))
(assert
 (>= l_0_1_4 0.0))
(assert
 (>= l_0_1_5 0.0))
(assert
 (>= l_0_1_6 0.0))
(assert
 (let ((?x201 (* 200.0 l_0_2_3)))
 (let ((?x203 (- (- (+ (* _a_0_ _a_2_) (* (* 1.0 _a_0_) _a_3_)) ?x201) l_0_2_4)))
 (= (- (- (- (- ?x203 l_0_2_5) l_0_2_6) l_0_2_7) l_0_2_8) 0.0))))
(assert
 (let ((?x237 (+ (- (+ (* _a_1_ _a_2_) (* (* 1.0 _a_1_) _a_3_)) l_0_2_2) l_0_2_3)))
 (= ?x237 0.0)))
(assert
 (= (- l_0_2_1) 0.0))
(assert
 (>= l_0_2_1 0.0))
(assert
 (>= l_0_2_2 0.0))
(assert
 (>= l_0_2_3 0.0))
(assert
 (>= l_0_2_4 0.0))
(assert
 (>= l_0_2_5 0.0))
(assert
 (>= l_0_2_6 0.0))
(assert
 (>= l_0_2_7 0.0))
(assert
 (>= l_0_2_8 0.0))
(assert
 (let ((?x264 (* 200.0 l_0_3_3)))
 (let ((?x263 (- (- (* (- _a_0_) _a_2_) (* (* 1.0 _a_0_) _a_3_)) l_0_3_10)))
 (let ((?x270 (- (- (- (- (- (- ?x263 ?x264) l_0_3_4) l_0_3_5) l_0_3_6) l_0_3_7) l_0_3_8)))
 (= (+ (- ?x270 l_0_3_9) 1.0) 0.0)))))
(assert
 (let ((?x306 (- (- (* (- _a_1_) _a_2_) (* (* 1.0 _a_1_) _a_3_)) l_0_3_2)))
 (= (+ ?x306 l_0_3_3) 0.0)))
(assert
 (= (- l_0_3_1) 0.0))
(assert
 (>= l_0_3_1 0.0))
(assert
 (>= l_0_3_2 0.0))
(assert
 (>= l_0_3_3 0.0))
(assert
 (>= l_0_3_4 0.0))
(assert
 (>= l_0_3_5 0.0))
(assert
 (>= l_0_3_6 0.0))
(assert
 (>= l_0_3_7 0.0))
(assert
 (>= l_0_3_8 0.0))
(assert
 (>= l_0_3_9 0.0))
(assert
 (>= l_0_3_10 0.0))
(assert
 (= (- (* 200.0 l_0_4_3) l_0_4_4) 0.0))
(assert
 (= (- l_0_4_1) 0.0))
(assert
 (= (- (- l_0_4_2) l_0_4_3) 0.0))
(assert
 (>= l_0_4_1 0.0))
(assert
 (>= l_0_4_2 0.0))
(assert
 (>= l_0_4_3 0.0))
(assert
 (>= l_0_4_4 0.0))
(assert
 (= (- (- (- (* 200.0 l_0_5_3) l_0_5_4) l_0_5_5) l_0_5_6) 0.0))
(assert
 (= (- l_0_5_1) 0.0))
(assert
 (= (- (- l_0_5_2) l_0_5_3) 0.0))
(assert
 (>= l_0_5_1 0.0))
(assert
 (>= l_0_5_2 0.0))
(assert
 (>= l_0_5_3 0.0))
(assert
 (>= l_0_5_4 0.0))
(assert
 (>= l_0_5_5 0.0))
(assert
 (>= l_0_5_6 0.0))
(assert
 (let ((?x388 (- (- (+ (* _a_0_ _a_2_) (* 200.0 l_0_6_3)) l_0_6_4) l_0_6_5)))
 (= (- (- (- ?x388 l_0_6_6) l_0_6_7) l_0_6_8) 0.0)))
(assert
 (= (- (- (* _a_1_ _a_2_) l_0_6_2) l_0_6_3) 0.0))
(assert
 (= (- l_0_6_1) 0.0))
(assert
 (>= l_0_6_1 0.0))
(assert
 (>= l_0_6_2 0.0))
(assert
 (>= l_0_6_3 0.0))
(assert
 (>= l_0_6_4 0.0))
(assert
 (>= l_0_6_5 0.0))
(assert
 (>= l_0_6_6 0.0))
(assert
 (>= l_0_6_7 0.0))
(assert
 (>= l_0_6_8 0.0))
(assert
 (let ((?x436 (- (+ (- (* (- _a_0_) _a_2_) l_0_7_10) (* 200.0 l_0_7_3)) l_0_7_4)))
 (let ((?x441 (- (- (- (- (- ?x436 l_0_7_5) l_0_7_6) l_0_7_7) l_0_7_8) l_0_7_9)))
 (= (+ ?x441 1.0) 0.0))))
(assert
 (= (- (- (* (- _a_1_) _a_2_) l_0_7_2) l_0_7_3) 0.0))
(assert
 (= (- l_0_7_1) 0.0))
(assert
 (>= l_0_7_1 0.0))
(assert
 (>= l_0_7_2 0.0))
(assert
 (>= l_0_7_3 0.0))
(assert
 (>= l_0_7_4 0.0))
(assert
 (>= l_0_7_5 0.0))
(assert
 (>= l_0_7_6 0.0))
(assert
 (>= l_0_7_7 0.0))
(assert
 (>= l_0_7_8 0.0))
(assert
 (>= l_0_7_9 0.0))
(assert
 (>= l_0_7_10 0.0))
(check-sat)
(get-model)